
Gurobi 10.0.1 (linux64) logging started Sun Nov 26 16:17:57 2023

Set parameter LogFile to value "ArtificialInstance/ExperimentV2/S2T5K3/BaRo/gurobi91.txt"
Gurobi Optimizer version 10.0.1 build v10.0.1rc0 (linux64)

CPU model: AMD EPYC 7H12 64-Core Processor, instruction set [SSE2|AVX|AVX2]
Thread count: 128 physical cores, 128 logical processors, using up to 32 threads

Academic license 656792 - for non-commercial use only - registered to b.___@student.vu.nl
Optimize a model with 3942 rows, 6001 columns and 20802 nonzeros
Model fingerprint: 0xc19d4b6e
Variable types: 1 continuous, 6000 integer (6000 binary)
Coefficient statistics:
  Matrix range     [1e+00, 4e+01]
  Objective range  [1e+00, 2e+01]
  Bounds range     [1e+00, 1e+00]
  RHS range        [1e+00, 1e+00]
Presolve time: 0.03s
Presolved: 3942 rows, 6001 columns, 20802 nonzeros
Variable types: 1 continuous, 6000 integer (6000 binary)
Found heuristic solution: objective 308.8012508

Root relaxation: objective 4.529272e+01, 3714 iterations, 0.15 seconds (0.12 work units)

    Nodes    |    Current Node    |     Objective Bounds      |     Work
 Expl Unexpl |  Obj  Depth IntInf | Incumbent    BestBd   Gap | It/Node Time

     0     0   45.29272    0  780  308.80125   45.29272  85.3%     -    0s
H    0     0                     246.7416423   45.29272  81.6%     -    0s
H    0     0                      86.8585473   45.29272  47.9%     -    0s
     0     0   53.42360    0  969   86.85855   53.42360  38.5%     -    0s
H    0     0                      82.6536118   53.42360  35.4%     -    0s
     0     0   53.42360    0  971   82.65361   53.42360  35.4%     -    0s
     0     0   56.27113    0 1045   82.65361   56.27113  31.9%     -    0s
     0     0   58.35247    0  933   82.65361   58.35247  29.4%     -    0s
     0     0   58.35247    0 1080   82.65361   58.35247  29.4%     -    0s
     0     0   59.36001    0 1073   82.65361   59.36001  28.2%     -    1s
     0     0   59.52187    0 1060   82.65361   59.52187  28.0%     -    1s
     0     0   59.52379    0 1058   82.65361   59.52379  28.0%     -    1s
H    0     0                      75.7852336   60.46436  20.2%     -    1s
     0     0   60.46436    0 1241   75.78523   60.46436  20.2%     -    1s
     0     0   60.64752    0 1183   75.78523   60.64752  20.0%     -    1s
     0     0   60.66724    0 1192   75.78523   60.66724  19.9%     -    1s
     0     0   60.66724    0 1195   75.78523   60.66724  19.9%     -    1s
H    0     0                      74.5728283   60.66724  18.6%     -    1s
     0     0   61.21240    0 1150   74.57283   61.21240  17.9%     -    1s
H    0     0                      74.1179368   61.21240  17.4%     -    1s
     0     0   61.37177    0 1255   74.11794   61.37177  17.2%     -    1s
     0     0   61.37337    0 1253   74.11794   61.37337  17.2%     -    1s
     0     0   62.01492    0 1236   74.11794   62.01492  16.3%     -    2s
     0     0   62.02516    0 1265   74.11794   62.02516  16.3%     -    2s
     0     0   62.02516    0 1267   74.11794   62.02516  16.3%     -    2s
     0     0   62.70726    0 1260   74.11794   62.70726  15.4%     -    2s
     0     0   62.73171    0 1231   74.11794   62.73171  15.4%     -    2s
     0     0   62.73309    0 1213   74.11794   62.73309  15.4%     -    2s
H    0     0                      74.0828207   62.77966  15.3%     -    2s
     0     0   62.77966    0 1220   74.08282   62.77966  15.3%     -    2s
     0     0   62.78024    0 1256   74.08282   62.78024  15.3%     -    2s
H    0     0                      73.2146002   62.78024  14.3%     -    2s
     0     0   62.78024    0 1251   73.21460   62.78024  14.3%     -    2s
     0     0   62.78024    0 1259   73.21460   62.78024  14.3%     -    2s
     0     0   62.79072    0 1239   73.21460   62.79072  14.2%     -    2s
     0     0   62.79072    0 1024   73.21460   62.79072  14.2%     -    3s
H    0     0                      71.9076711   62.79072  12.7%     -    3s
     0     2   62.79072    0 1020   71.90767   62.79072  12.7%     -    3s
H  120    59                      71.2223583   67.05815  5.85%   326    4s

Cutting planes:
  Gomory: 10
  MIR: 1
  Zero half: 134
  RLT: 175

Explored 380 nodes (103574 simplex iterations) in 4.98 seconds (4.22 work units)
Thread count was 32 (of 128 available processors)

Solution count 10: 71.2224 71.9077 73.2146 ... 246.742

Optimal solution found (tolerance 1.00e-04)
Best objective 7.122235826158e+01, best bound 7.122235826158e+01, gap 0.0000%
